0 5 7 1 6 5 3 10 4 8
1 0 8 4 7 6 3 1 1 7
9 2 0 9 4 2 3 6 9 9
1 2 4 0 5 9 6 6 3 3
3 7 8 4 0 7 9 10 4 2
1 6 9 8 6 0 2 5 1 5
1 2 3 6 8 2 0 10 9 4
10 4 8 4 1 4 10 0 9 2
5 3 8 6 9 5 5 10 0 10
10 10 1 4 1 9 2 4 8 0
